
%FILE DATA:	Soccer Computational Problem for MiniZinc Models	%
%AUTHOR:	Jack Wall	%
%CONTACT:  	116397063@umail.ucc.ie			%
%LAST UPDATE:	03/03/2020, 12:12:28						%
%DESCRIPTION: 	45 games played with 27 games left				%


n=9; %number of teams

%Games to play
games=[|8,9|8,2|2,9|2,4|4,7|5,9|3,9|1,8|4,5|3,8|1,3|7,9|6,4|2,6|9,6|9,5|1,5|8,3|2,7|2,8|4,2|5,3|9,3|7,8|9,1|4,6|3,1|];

%Initial points
iPoints=[19,17,9,6,7,19,15,23,9];

%POSITION CONSTRAINTS
% [|teamID, operator, position|...]
% operators index:
%  1 for =  operator
%  2 for >  operator
%  3 for >= operator
%  4 for <  operator
%  5 for <= operator
positionConstraints=[|1,4,2|8,4,3|2,4,4|6,4,5|7,5,5|];